p cnf 293 327
c 32 select(1,25)
c 33 nots(1,25)
c 34 select(1,29)
c 35 nots(1,29)
c 36 reach(29)
c 37 reach(25)
c 38 select(25,1)
c 39 nots(25,1)
c 40 select(29,1)
c 41 nots(29,1)
c 42 select(29,6)
c 43 nots(29,6)
c 44 select(25,26)
c 45 nots(25,26)
c 46 reach(26)
c 47 reach(6)
c 48 select(26,9)
c 49 nots(26,9)
c 50 select(26,25)
c 51 nots(26,25)
c 52 select(6,11)
c 53 nots(6,11)
c 54 select(6,29)
c 55 nots(6,29)
c 56 reach(11)
c 57 reach(9)
c 58 select(11,6)
c 59 nots(11,6)
c 60 select(11,7)
c 61 nots(11,7)
c 62 select(9,26)
c 63 nots(9,26)
c 64 select(9,20)
c 65 nots(9,20)
c 66 reach(20)
c 67 reach(7)
c 68 select(20,9)
c 69 nots(20,9)
c 70 select(20,16)
c 71 nots(20,16)
c 72 select(7,11)
c 73 nots(7,11)
c 74 select(7,28)
c 75 nots(7,28)
c 76 reach(28)
c 77 reach(16)
c 78 select(28,7)
c 79 nots(28,7)
c 80 select(28,8)
c 81 nots(28,8)
c 82 select(16,20)
c 83 nots(16,20)
c 84 select(16,21)
c 85 nots(16,21)
c 86 reach(21)
c 87 reach(8)
c 88 select(21,13)
c 89 nots(21,13)
c 90 select(21,16)
c 91 nots(21,16)
c 92 select(8,24)
c 93 nots(8,24)
c 94 select(8,28)
c 95 nots(8,28)
c 96 reach(24)
c 97 reach(13)
c 98 select(24,5)
c 99 nots(24,5)
c 100 select(24,8)
c 101 nots(24,8)
c 102 select(13,21)
c 103 nots(13,21)
c 104 select(13,23)
c 105 nots(13,23)
c 106 reach(23)
c 107 reach(5)
c 108 select(23,13)
c 109 nots(23,13)
c 110 select(23,22)
c 111 nots(23,22)
c 112 select(5,24)
c 113 nots(5,24)
c 114 select(5,18)
c 115 nots(5,18)
c 116 reach(18)
c 117 reach(22)
c 118 select(22,12)
c 119 nots(22,12)
c 120 select(18,5)
c 121 nots(18,5)
c 122 select(18,14)
c 123 nots(18,14)
c 124 select(22,23)
c 125 nots(22,23)
c 126 reach(14)
c 127 reach(12)
c 128 select(12,2)
c 129 nots(12,2)
c 130 select(14,4)
c 131 nots(14,4)
c 132 select(12,22)
c 133 nots(12,22)
c 134 select(14,18)
c 135 nots(14,18)
c 136 reach(4)
c 137 reach(2)
c 138 select(2,3)
c 139 nots(2,3)
c 140 select(2,12)
c 141 nots(2,12)
c 142 select(4,27)
c 143 nots(4,27)
c 144 select(4,14)
c 145 nots(4,14)
c 146 reach(27)
c 147 reach(3)
c 148 select(3,2)
c 149 nots(3,2)
c 150 select(27,4)
c 151 nots(27,4)
c 152 select(27,10)
c 153 nots(27,10)
c 154 reach(10)
c 155 select(10,17)
c 156 nots(10,17)
c 157 select(10,27)
c 158 nots(10,27)
c 159 select(10,15)
c 160 nots(10,15)
c 161 reach(15)
c 162 reach(17)
c 163 select(17,10)
c 164 nots(17,10)
c 165 select(15,10)
c 166 nots(15,10)
c 167 select(17,19)
c 168 nots(17,19)
c 169 select(15,19)
c 170 nots(15,19)
c 171 reach(19)
c 172 select(19,15)
c 173 nots(19,15)
c 174 select(19,17)
c 175 nots(19,17)
c 206 edge(1,25)
c 207 edge(1,29)
c 208 edge(2,3)
c 209 edge(2,12)
c 210 edge(4,27)
c 211 edge(4,14)
c 212 edge(5,24)
c 213 edge(5,18)
c 214 edge(6,11)
c 215 edge(6,29)
c 216 edge(7,11)
c 217 edge(7,28)
c 218 edge(8,24)
c 219 edge(8,28)
c 220 edge(9,26)
c 221 edge(9,20)
c 222 edge(10,17)
c 223 edge(10,27)
c 224 edge(10,15)
c 225 edge(12,22)
c 226 edge(13,21)
c 227 edge(13,23)
c 228 edge(14,18)
c 229 edge(15,19)
c 230 edge(16,20)
c 231 edge(16,21)
c 232 edge(17,19)
c 233 edge(22,23)
c 234 edge(25,26)
c 235 reach(1)
c 236 goal(29)
36 0
-178 0
206 0
207 0
208 0
209 0
210 0
211 0
212 0
213 0
214 0
215 0
216 0
217 0
218 0
219 0
220 0
221 0
222 0
223 0
224 0
225 0
226 0
227 0
228 0
229 0
230 0
231 0
232 0
233 0
234 0
235 0
236 0
-1 0
-2 0
-3 0
-4 0
-5 0
-6 0
-7 0
-8 0
-9 0
-10 0
-11 0
-12 0
-13 0
-14 0
-15 0
-16 0
-17 0
-18 0
-19 0
-20 0
-21 0
-22 0
-23 0
-24 0
-25 0
-26 0
-27 0
-28 0
-29 0
-30 0
-31 0
-176 0
-177 0
-292 0
-40 0
41 0
-293 0
-42 0
-240 0
43 0
-179 0
-180 0
-181 0
-182 0
-183 0
-184 0
-185 0
-186 0
-187 0
-188 0
-189 0
-190 0
-191 0
-192 0
-193 0
-194 0
-195 0
-196 0
-197 0
-198 0
-199 0
-200 0
-201 0
-202 0
-203 0
-204 0
-205 0
-54 0
-241 0
237 0
34 0
-35 0
-32 0
33 0
-238 0
-38 0
-45 0
-53 0
-149 0
-55 0
-39 0
-279 0
-244 0
-243 0
-239 0
-44 0
-291 0
-290 0
-289 0
-288 0
-287 0
-286 0
-280 0
-278 0
-276 0
-275 0
-274 0
-272 0
-270 0
-269 0
-268 0
-267 0
-265 0
-264 0
-262 0
-261 0
-260 0
-259 0
-258 0
-255 0
-254 0
-253 0
-252 0
-251 0
-249 0
-247 0
-246 0
-245 0
-175 0
-173 0
-170 0
-168 0
-166 0
-165 0
-167 0
-164 0
-172 0
-174 0
-160 0
-49 0
-48 0
-51 0
-50 0
-61 0
-63 0
-62 0
-69 0
-71 0
-73 0
-75 0
-79 0
-81 0
-83 0
-85 0
-89 0
-91 0
-93 0
-95 0
-99 0
-101 0
-103 0
-105 0
-109 0
-111 0
-113 0
-115 0
-119 0
-121 0
-123 0
-125 0
-129 0
-131 0
-133 0
-135 0
-139 0
-141 0
-143 0
-145 0
-70 0
-74 0
-151 0
-153 0
-156 0
-158 0
-59 0
-60 0
-80 0
-82 0
-84 0
-88 0
-142 0
-58 0
-92 0
-65 0
-98 0
-140 0
-138 0
-147 0
-248 0
-132 0
-148 0
-130 0
-128 0
-124 0
-122 0
-47 0
-52 0
-242 0
-114 0
-120 0
-112 0
-72 0
-250 0
-78 0
-150 0
-144 0
-94 0
-100 0
-134 0
-157 0
-159 0
-64 0
-90 0
-110 0
-118 0
-169 0
-152 0
-257 0
-277 0
-263 0
-273 0
-285 0
-283 0
-282 0
-256 0
-37 46 0
-37 -57 68 0
102 -86 -66 57 0
102 37 -66 -86 -46 0
-68 66 0
-77 -68 86 0
56 -67 271 -87 -107 0
102 -86 77 0
37 -46 77 -66 0
-77 66 86 0
66 -77 108 -97 0
-67 56 76 0
-102 97 0
-104 97 0
-67 56 96 -87 0
-108 106 0
127 -117 -108 0
-266 107 0
137 -127 104 -106 0
-271 116 0
137 117 -127 0
-266 -136 281 -116 0
-266 -116 126 0
-271 -146 284 -126 0
-271 -126 136 0
161 -281 163 -154 0
-281 146 0
154 -155 0
171 -161 -155 0
171 -284 -161 0
171 155 -162 0
-163 162 0
161 -171 162 0
-163 161 -171 0
-171 146 162 163 -154 0
-284 -162 -161 0
68 -57 46 0
37 -46 57 0
-68 -77 108 -97 0
-96 -76 266 67 0
76 -107 271 -87 0
77 -66 57 0
86 -97 108 0
-96 87 266 0
96 -107 271 0
-104 -102 0
127 106 -117 0
-136 -116 281 107 0
-126 -146 284 116 0
117 -106 104 0
-136 126 281 0
104 -108 0
136 -146 284 0
161 146 163 -154 0
171 154 -161 0
-284 154 0
-284 -155 0
-171 -281 162 -154 0
-96 -107 266 271 0
87 -76 67 0
-87 76 96 0
-266 96 0
-271 107 0
126 -116 107 0
-126 116 136 0
-281 136 0
-284 146 0
-161 -162 154 0
162 -155 0
